NAME 
ROWS
 N  OBJ
 L  R0      
 L  R1      
 L  R2      
 E  R3      
 E  R4      
 E  R5      
 E  R6      
 E  R7      
 E  R8      
 E  R9      
 E  R10     
 E  R11     
 E  R12     
 E  R13     
 E  R14     
 E  R15     
 E  R16     
 E  R17     
 E  R18     
 E  R19     
 E  R20     
 E  R21     
 E  R22     
COLUMNS
    MARKER    'MARKER'                 'INTORG'
    I0(8)     OBJ       -44
    I0(8)     R0        -199
    I0(8)     R1        -61
    I0(8)     R2        33
    I0(8)     R5        1
    I0(8)     R6        10
    I0(8)     R8        17
    I0(8)     R9        8
    I0(8)     R22       1
    I1(9)     OBJ       -195
    I1(9)     R0        -49
    I1(9)     R1        127
    I1(9)     R2        51
    I1(9)     R5        13
    I1(9)     R6        7
    I1(9)     R7        16
    I1(9)     R8        6
    I1(9)     R10       13
    I1(9)     R22       1
    I2(11)    OBJ       98
    I2(11)    R0        -73
    I2(11)    R1        11
    I2(11)    R2        -143
    I2(11)    R3        1
    I2(11)    R4        8
    I2(11)    R5        7
    I2(11)    R6        7
    I2(11)    R8        2
    I2(11)    R9        5
    I2(11)    R10       4
    I2(11)    R22       1
    I3(11)    OBJ       -92
    I3(11)    R0        -67
    I3(11)    R1        -153
    I3(11)    R2        176
    I3(11)    R3        3
    I3(11)    R4        15
    I3(11)    R5        19
    I3(11)    R7        17
    I3(11)    R8        19
    I3(11)    R9        5
    I3(11)    R10       1
    I3(11)    R22       1
    I4(11)    OBJ       -143
    I4(11)    R0        -80
    I4(11)    R1        -98
    I4(11)    R2        -171
    I4(11)    R3        4
    I4(11)    R4        1
    I4(11)    R5        3
    I4(11)    R7        1
    I4(11)    R8        13
    I4(11)    R9        19
    I4(11)    R10       12
    I4(11)    R22       1
    I5(11)    OBJ       20
    I5(11)    R0        159
    I5(11)    R1        -18
    I5(11)    R2        122
    I5(11)    R3        13
    I5(11)    R4        2
    I5(11)    R5        18
    I5(11)    R6        -1
    I5(11)    R8        5
    I5(11)    R9        16
    I5(11)    R10       16
    I5(11)    R22       1
    I6(10)    OBJ       -65
    I6(10)    R0        -143
    I6(10)    R1        -17
    I6(10)    R2        -45
    I6(10)    R3        7
    I6(10)    R4        16
    I6(10)    R6        8
    I6(10)    R7        11
    I6(10)    R8        1
    I6(10)    R9        16
    I6(10)    R22       1
    I7(8)     OBJ       -117
    I7(8)     R0        -97
    I7(8)     R1        3
    I7(8)     R2        -6
    I7(8)     R5        16
    I7(8)     R6        14
    I7(8)     R8        5
    I7(8)     R9        1
    I7(8)     R22       1
    MARKER    'MARKER'                 'INTEND'
    C8(15)    OBJ       -5
    C8(15)    R1        6
    C8(15)    R3        17
    C8(15)    R4        2
    C8(15)    R6        19
    C8(15)    R7        1
    C8(15)    R8        2
    C8(15)    R9        11
    C8(15)    R10       -1
    C8(15)    R12       14
    C8(15)    R13       18
    C8(15)    R15       11
    C8(15)    R18       7
    C8(15)    R19       16
    C8(15)    R20       4
    C8(15)    R21       9
    C9(14)    OBJ       -3
    C9(14)    R0        -4
    C9(14)    R1        -8
    C9(14)    R2        4
    C9(14)    R4        -1
    C9(14)    R6        3
    C9(14)    R7        6
    C9(14)    R11       15
    C9(14)    R12       9
    C9(14)    R13       16
    C9(14)    R15       2
    C9(14)    R18       19
    C9(14)    R19       6
    C9(14)    R20       1
    C9(14)    R21       10
    C10(12)   OBJ       -9
    C10(12)   R0        -6
    C10(12)   R1        6
    C10(12)   R2        7
    C10(12)   R5        13
    C10(12)   R7        7
    C10(12)   R8        5
    C10(12)   R9        14
    C10(12)   R12       12
    C10(12)   R16       17
    C10(12)   R17       5
    C10(12)   R18       8
    C10(12)   R21       16
    C11(13)   OBJ       3
    C11(13)   R0        -1
    C11(13)   R1        6
    C11(13)   R2        6
    C11(13)   R3        15
    C11(13)   R4        2
    C11(13)   R8        16
    C11(13)   R9        17
    C11(13)   R10       14
    C11(13)   R12       18
    C11(13)   R15       13
    C11(13)   R16       1
    C11(13)   R18       17
    C11(13)   R19       4
    C12(17)   OBJ       -9
    C12(17)   R0        -9
    C12(17)   R1        -3
    C12(17)   R2        -9
    C12(17)   R4        19
    C12(17)   R5        12
    C12(17)   R8        3
    C12(17)   R9        2
    C12(17)   R10       16
    C12(17)   R11       10
    C12(17)   R12       17
    C12(17)   R13       3
    C12(17)   R14       15
    C12(17)   R15       18
    C12(17)   R16       16
    C12(17)   R18       14
    C12(17)   R20       6
    C12(17)   R21       14
    C13(13)   OBJ       4
    C13(13)   R0        -10
    C13(13)   R1        -2
    C13(13)   R2        -5
    C13(13)   R3        15
    C13(13)   R4        12
    C13(13)   R5        17
    C13(13)   R8        17
    C13(13)   R10       12
    C13(13)   R11       5
    C13(13)   R12       3
    C13(13)   R13       4
    C13(13)   R14       10
    C13(13)   R18       13
    C14(15)   OBJ       3
    C14(15)   R0        -10
    C14(15)   R1        -6
    C14(15)   R2        -10
    C14(15)   R3        19
    C14(15)   R8        13
    C14(15)   R9        6
    C14(15)   R10       1
    C14(15)   R11       -1
    C14(15)   R12       19
    C14(15)   R15       10
    C14(15)   R16       13
    C14(15)   R17       16
    C14(15)   R18       18
    C14(15)   R20       1
    C14(15)   R21       1
    C15(18)   OBJ       -6
    C15(18)   R0        2
    C15(18)   R1        2
    C15(18)   R2        1
    C15(18)   R3        3
    C15(18)   R4        5
    C15(18)   R5        1
    C15(18)   R6        12
    C15(18)   R7        14
    C15(18)   R10       9
    C15(18)   R11       7
    C15(18)   R12       2
    C15(18)   R14       18
    C15(18)   R16       6
    C15(18)   R17       8
    C15(18)   R18       14
    C15(18)   R19       7
    C15(18)   R20       15
    C15(18)   R21       17
    C16(16)   OBJ       -2
    C16(16)   R0        -1
    C16(16)   R1        8
    C16(16)   R2        9
    C16(16)   R4        13
    C16(16)   R6        18
    C16(16)   R10       7
    C16(16)   R11       1
    C16(16)   R12       2
    C16(16)   R13       15
    C16(16)   R14       5
    C16(16)   R15       7
    C16(16)   R16       -1
    C16(16)   R18       8
    C16(16)   R19       16
    C16(16)   R20       12
    C16(16)   R21       1
    C17(16)   OBJ       -2
    C17(16)   R0        6
    C17(16)   R1        -9
    C17(16)   R2        9
    C17(16)   R4        18
    C17(16)   R6        19
    C17(16)   R8        18
    C17(16)   R9        3
    C17(16)   R11       7
    C17(16)   R12       6
    C17(16)   R13       3
    C17(16)   R14       17
    C17(16)   R16       17
    C17(16)   R17       12
    C17(16)   R19       5
    C17(16)   R20       -1
    C17(16)   R21       7
    C18(15)   OBJ       7
    C18(15)   R0        9
    C18(15)   R1        -6
    C18(15)   R2        -7
    C18(15)   R4        5
    C18(15)   R6        19
    C18(15)   R8        10
    C18(15)   R9        7
    C18(15)   R10       1
    C18(15)   R13       8
    C18(15)   R14       6
    C18(15)   R15       7
    C18(15)   R16       13
    C18(15)   R17       2
    C18(15)   R20       18
    C18(15)   R21       17
    C19(15)   OBJ       -1
    C19(15)   R0        4
    C19(15)   R1        9
    C19(15)   R2        1
    C19(15)   R3        12
    C19(15)   R4        9
    C19(15)   R5        11
    C19(15)   R6        9
    C19(15)   R7        11
    C19(15)   R8        5
    C19(15)   R9        15
    C19(15)   R11       9
    C19(15)   R14       18
    C19(15)   R17       16
    C19(15)   R20       6
    C19(15)   R21       5
    C20(1)    R3        1
    C21(1)    R4        1
    C22(1)    R5        1
    C23(1)    R6        1
    C24(1)    R7        1
    C25(1)    R8        1
    C26(1)    R9        1
    C27(1)    R10       1
    C28(1)    R11       1
    C29(1)    R12       1
    C30(1)    R13       1
    C31(1)    R14       1
    C32(1)    R15       1
    C33(1)    R16       1
    C34(1)    R17       1
    C35(1)    R18       1
    C36(1)    R19       1
    C37(1)    R20       1
    C38(1)    R21       1
    C39(1)    R22       1
RHS
    RHS1      R0        -1.2408130081300816e+02
    RHS1      R1        2.9791869918699172e+02
    RHS1      R2        1.4799593495934934e+02
    RHS1      R3        94
    RHS1      R4        63
    RHS1      R5        87
    RHS1      R6        95
    RHS1      R7        73
    RHS1      R8        53
    RHS1      R9        72
    RHS1      R10       99
    RHS1      R11       94
    RHS1      R12       98
    RHS1      R13       59
    RHS1      R14       59
    RHS1      R15       79
    RHS1      R16       72
    RHS1      R17       95
    RHS1      R18       69
    RHS1      R19       98
    RHS1      R20       84
    RHS1      R21       56
    RHS1      R22       2
BOUNDS
 UP BND1      I0(8)     2
 UP BND1      I1(9)     2
 UP BND1      I2(11)    2
 UP BND1      I3(11)    2
 UP BND1      I4(11)    2
 UP BND1      I5(11)    2
 UP BND1      I6(10)    2
 UP BND1      I7(8)     2
ENDATA
